(set-info :source  loris-7.ddns.comp.nus.edu.sg/~project/hip/) 
;Variables declarations
(declare-fun q_2513 () Int)
(declare-fun tmp_2506 () Int)
(declare-fun tmp_2503 () Int)
(declare-fun y_primed () Int)
(declare-fun q_2529 () Int)
(declare-fun my () Int)
(declare-fun y () Int)
(declare-fun q_2492 () Int)
(declare-fun nx_2495 () Int)
(declare-fun n_2487 () Int)
(declare-fun mx () Int)
(declare-fun m2_2493 () Int)
(declare-fun nx () Int)
(declare-fun n2_2494 () Int)
(declare-fun p_2526 () Int)
(declare-fun m1_2490 () Int)
(declare-fun n1_2491 () Int)
(declare-fun p_2489 () Int)
;Relations declarations
;Axioms assertions
;Antecedent
(assert (= q_2513 y_primed))
(assert (= tmp_2506 (+ 1 tmp_2503)))
(assert (= tmp_2503 n_2487))
(assert (= y_primed y))
(assert (= q_2529 q_2492))
(assert (or (and (and (< y 1) (= my 0)) (= nx_2495 0)) (and (and (<= 1 nx_2495) (<= 1 my)) (> y 0))))
(assert (or (and (and (< q_2492 1) (= m2_2493 0)) (= n2_2494 0)) (and (and (<= 1 n2_2494) (<= 1 m2_2493)) (> q_2492 0))))
(assert (= nx_2495 nx))
(assert (= n_2487 nx))
(assert (= mx (+ (+ m2_2493 1) m1_2490)))
(assert (<= (+ 0 n2_2494) (+ n1_2491 1)))
(assert (<= n1_2491 (+ 1 n2_2494)))
(assert (exists ((max_2541 Int)) (and (= nx (+ 1 max_2541)) (or (and (= max_2541 n1_2491) (>= n1_2491 n2_2494)) (and (= max_2541 n2_2494) (< n1_2491 n2_2494))))))
(assert (= p_2526 p_2489))
(assert (or (and (and (< p_2489 1) (= m1_2490 0)) (= n1_2491 0)) (and (and (<= 1 n1_2491) (<= 1 m1_2490)) (> p_2489 0))))
;Negation of Consequence
(assert (not (or (= m1_2490 0) (or (= n1_2491 0) (< p_2489 1)))))
(check-sat)